c Reduced graph for GEOM100b generated by Cyril Grelier
p edge 88 958
e 1 2
e 1 3
e 1 5
e 1 6
e 1 7
e 1 8
e 1 9
e 1 10
e 1 12
e 1 14
e 1 18
e 1 32
e 1 33
e 1 34
e 1 36
e 1 37
e 1 39
e 1 40
e 1 41
e 1 45
e 1 47
e 1 48
e 1 63
e 1 64
e 1 65
e 1 66
e 1 67
e 1 68
e 1 69
e 1 70
e 1 71
e 1 72
e 1 73
e 1 74
e 1 75
e 1 76
e 1 83
e 2 3
e 2 5
e 2 6
e 2 7
e 2 8
e 2 10
e 2 12
e 2 14
e 2 15
e 2 16
e 2 18
e 2 32
e 2 33
e 2 34
e 2 35
e 2 36
e 2 37
e 2 39
e 2 40
e 2 46
e 2 63
e 2 64
e 2 65
e 2 66
e 2 67
e 2 68
e 2 69
e 2 70
e 2 72
e 2 74
e 2 79
e 3 5
e 3 6
e 3 7
e 3 8
e 3 9
e 3 10
e 3 12
e 3 13
e 3 14
e 3 32
e 3 33
e 3 36
e 3 39
e 3 40
e 3 41
e 3 47
e 3 63
e 3 64
e 3 65
e 3 66
e 3 67
e 3 68
e 3 70
e 3 71
e 3 72
e 3 73
e 3 74
e 3 75
e 3 76
e 3 83
e 4 7
e 4 8
e 4 10
e 4 11
e 4 13
e 4 17
e 4 19
e 4 20
e 4 21
e 4 23
e 4 24
e 4 25
e 4 33
e 4 38
e 4 42
e 4 43
e 4 44
e 4 49
e 4 50
e 4 51
e 4 64
e 4 65
e 4 67
e 4 70
e 4 71
e 4 77
e 4 78
e 4 80
e 4 82
e 4 87
e 4 88
e 5 7
e 5 8
e 5 9
e 5 10
e 5 14
e 5 18
e 5 32
e 5 33
e 5 39
e 5 40
e 5 41
e 5 45
e 5 47
e 5 48
e 5 52
e 5 54
e 5 63
e 5 64
e 5 66
e 5 67
e 5 70
e 5 72
e 5 73
e 5 74
e 5 75
e 5 76
e 5 81
e 5 83
e 6 7
e 6 10
e 6 12
e 6 15
e 6 16
e 6 22
e 6 26
e 6 27
e 6 33
e 6 34
e 6 35
e 6 36
e 6 37
e 6 39
e 6 46
e 6 53
e 6 57
e 6 63
e 6 64
e 6 65
e 6 66
e 6 67
e 6 68
e 6 69
e 6 79
e 6 84
e 6 85
e 7 8
e 7 9
e 7 10
e 7 12
e 7 13
e 7 15
e 7 32
e 7 33
e 7 34
e 7 35
e 7 36
e 7 37
e 7 63
e 7 64
e 7 65
e 7 66
e 7 67
e 7 68
e 7 69
e 7 70
e 7 71
e 7 75
e 7 76
e 8 10
e 8 11
e 8 12
e 8 13
e 8 17
e 8 19
e 8 20
e 8 24
e 8 33
e 8 36
e 8 38
e 8 42
e 8 44
e 8 64
e 8 65
e 8 67
e 8 68
e 8 70
e 8 71
e 8 75
e 8 76
e 9 14
e 9 24
e 9 32
e 9 40
e 9 41
e 9 47
e 9 52
e 9 54
e 9 55
e 9 58
e 9 59
e 9 62
e 9 64
e 9 70
e 9 71
e 9 72
e 9 73
e 9 74
e 9 75
e 9 76
e 9 81
e 9 83
e 9 86
e 10 11
e 10 12
e 10 13
e 10 15
e 10 17
e 10 22
e 10 33
e 10 36
e 10 38
e 10 44
e 10 64
e 10 65
e 10 67
e 10 68
e 10 69
e 10 70
e 10 71
e 10 77
e 11 13
e 11 17
e 11 19
e 11 20
e 11 21
e 11 23
e 11 24
e 11 25
e 11 28
e 11 38
e 11 42
e 11 43
e 11 44
e 11 49
e 11 50
e 11 51
e 11 65
e 11 70
e 11 71
e 11 78
e 11 80
e 11 82
e 11 88
e 12 15
e 12 16
e 12 17
e 12 22
e 12 27
e 12 33
e 12 34
e 12 35
e 12 36
e 12 37
e 12 56
e 12 63
e 12 64
e 12 65
e 12 67
e 12 68
e 12 69
e 12 70
e 12 77
e 13 19
e 13 20
e 13 24
e 13 28
e 13 33
e 13 38
e 13 42
e 13 44
e 13 51
e 13 64
e 13 65
e 13 67
e 13 70
e 13 71
e 13 75
e 13 76
e 13 80
e 13 82
e 13 83
e 13 88
e 14 18
e 14 32
e 14 40
e 14 41
e 14 45
e 14 47
e 14 48
e 14 52
e 14 54
e 14 55
e 14 58
e 14 59
e 14 62
e 14 72
e 14 73
e 14 74
e 14 75
e 14 76
e 14 81
e 14 83
e 14 86
e 15 16
e 15 17
e 15 22
e 15 26
e 15 27
e 15 30
e 15 33
e 15 34
e 15 35
e 15 36
e 15 37
e 15 56
e 15 57
e 15 63
e 15 64
e 15 65
e 15 67
e 15 68
e 15 69
e 15 77
e 16 26
e 16 27
e 16 31
e 16 33
e 16 34
e 16 35
e 16 36
e 16 37
e 16 39
e 16 46
e 16 53
e 16 57
e 16 61
e 16 63
e 16 66
e 16 67
e 16 68
e 16 69
e 16 79
e 16 84
e 16 85
e 17 19
e 17 21
e 17 22
e 17 29
e 17 30
e 17 36
e 17 38
e 17 42
e 17 43
e 17 49
e 17 50
e 17 56
e 17 60
e 17 65
e 17 77
e 17 78
e 17 87
e 18 32
e 18 34
e 18 37
e 18 39
e 18 40
e 18 41
e 18 45
e 18 46
e 18 48
e 18 53
e 18 55
e 18 63
e 18 66
e 18 72
e 18 73
e 18 74
e 18 79
e 18 81
e 19 20
e 19 21
e 19 23
e 19 25
e 19 38
e 19 42
e 19 43
e 19 44
e 19 49
e 19 50
e 19 51
e 19 71
e 19 78
e 19 80
e 19 82
e 19 88
e 20 24
e 20 25
e 20 28
e 20 38
e 20 42
e 20 44
e 20 51
e 20 58
e 20 70
e 20 71
e 20 75
e 20 76
e 20 80
e 20 82
e 20 83
e 20 88
e 21 23
e 21 25
e 21 29
e 21 38
e 21 42
e 21 43
e 21 49
e 21 50
e 21 51
e 21 60
e 21 77
e 21 78
e 21 80
e 21 82
e 21 87
e 22 27
e 22 30
e 22 33
e 22 36
e 22 43
e 22 49
e 22 50
e 22 56
e 22 65
e 22 67
e 22 68
e 22 69
e 22 77
e 22 87
e 23 25
e 23 29
e 23 38
e 23 42
e 23 43
e 23 49
e 23 50
e 23 51
e 23 60
e 23 78
e 23 80
e 23 82
e 24 28
e 24 44
e 24 47
e 24 58
e 24 70
e 24 71
e 24 75
e 24 76
e 24 83
e 24 88
e 25 38
e 25 42
e 25 43
e 25 44
e 25 51
e 25 78
e 25 80
e 25 82
e 25 88
e 26 27
e 26 31
e 26 34
e 26 35
e 26 37
e 26 57
e 26 61
e 26 63
e 26 68
e 26 69
e 26 84
e 26 85
e 27 30
e 27 35
e 27 36
e 27 56
e 27 57
e 27 68
e 27 69
e 27 84
e 28 44
e 28 47
e 28 58
e 28 71
e 28 75
e 28 76
e 28 83
e 28 88
e 29 42
e 29 43
e 29 49
e 29 50
e 29 60
e 29 77
e 29 78
e 29 87
e 30 49
e 30 56
e 30 60
e 30 77
e 30 87
e 31 35
e 31 53
e 31 57
e 31 61
e 31 84
e 31 85
e 32 33
e 32 39
e 32 40
e 32 41
e 32 45
e 32 47
e 32 48
e 32 52
e 32 54
e 32 55
e 32 63
e 32 64
e 32 66
e 32 67
e 32 72
e 32 73
e 32 74
e 32 75
e 32 76
e 32 81
e 32 86
e 33 34
e 33 35
e 33 36
e 33 37
e 33 63
e 33 64
e 33 65
e 33 66
e 33 67
e 33 68
e 33 69
e 33 70
e 33 77
e 34 35
e 34 36
e 34 37
e 34 39
e 34 46
e 34 53
e 34 57
e 34 61
e 34 63
e 34 64
e 34 66
e 34 67
e 34 68
e 34 69
e 34 72
e 34 79
e 34 84
e 34 85
e 35 36
e 35 37
e 35 39
e 35 46
e 35 53
e 35 57
e 35 61
e 35 63
e 35 64
e 35 65
e 35 66
e 35 67
e 35 68
e 35 69
e 35 79
e 35 84
e 35 85
e 36 37
e 36 56
e 36 63
e 36 64
e 36 65
e 36 67
e 36 68
e 36 69
e 36 70
e 36 77
e 36 87
e 37 39
e 37 46
e 37 53
e 37 57
e 37 61
e 37 63
e 37 64
e 37 66
e 37 67
e 37 68
e 37 69
e 37 79
e 37 84
e 37 85
e 38 42
e 38 43
e 38 44
e 38 49
e 38 50
e 38 51
e 38 65
e 38 70
e 38 71
e 38 77
e 38 78
e 38 80
e 38 82
e 38 87
e 38 88
e 39 40
e 39 45
e 39 46
e 39 48
e 39 53
e 39 63
e 39 64
e 39 66
e 39 68
e 39 69
e 39 72
e 39 74
e 39 79
e 39 85
e 40 41
e 40 45
e 40 46
e 40 48
e 40 52
e 40 54
e 40 55
e 40 59
e 40 63
e 40 66
e 40 72
e 40 73
e 40 74
e 40 81
e 40 86
e 41 45
e 41 47
e 41 48
e 41 52
e 41 54
e 41 55
e 41 59
e 41 62
e 41 72
e 41 73
e 41 74
e 41 75
e 41 76
e 41 81
e 41 86
e 42 43
e 42 44
e 42 49
e 42 50
e 42 51
e 42 71
e 42 78
e 42 80
e 42 82
e 42 88
e 43 49
e 43 50
e 43 51
e 43 56
e 43 60
e 43 77
e 43 78
e 43 80
e 43 82
e 43 87
e 44 51
e 44 65
e 44 70
e 44 71
e 44 75
e 44 78
e 44 80
e 44 82
e 44 88
e 45 46
e 45 48
e 45 52
e 45 53
e 45 55
e 45 63
e 45 66
e 45 72
e 45 73
e 45 74
e 45 79
e 45 81
e 45 86
e 46 48
e 46 53
e 46 61
e 46 63
e 46 66
e 46 69
e 46 72
e 46 74
e 46 79
e 46 84
e 46 85
e 47 52
e 47 54
e 47 58
e 47 59
e 47 62
e 47 71
e 47 73
e 47 75
e 47 76
e 47 83
e 47 86
e 48 52
e 48 55
e 48 63
e 48 66
e 48 72
e 48 73
e 48 74
e 48 79
e 48 81
e 48 86
e 49 50
e 49 56
e 49 60
e 49 77
e 49 78
e 49 80
e 49 87
e 50 51
e 50 56
e 50 60
e 50 77
e 50 78
e 50 80
e 50 87
e 51 71
e 51 78
e 51 80
e 51 82
e 51 88
e 52 54
e 52 55
e 52 59
e 52 62
e 52 72
e 52 73
e 52 74
e 52 81
e 52 86
e 53 61
e 53 63
e 53 66
e 53 69
e 53 72
e 53 79
e 53 84
e 53 85
e 54 55
e 54 58
e 54 59
e 54 62
e 54 73
e 54 75
e 54 76
e 54 81
e 54 83
e 54 86
e 55 59
e 55 62
e 55 72
e 55 73
e 55 74
e 55 81
e 55 86
e 56 60
e 56 65
e 56 68
e 56 77
e 56 87
e 57 61
e 57 69
e 57 84
e 57 85
e 58 70
e 58 71
e 58 73
e 58 75
e 58 76
e 58 83
e 59 62
e 59 73
e 59 74
e 59 81
e 59 86
e 60 77
e 60 78
e 60 87
e 61 79
e 61 84
e 61 85
e 62 73
e 62 81
e 62 86
e 63 64
e 63 65
e 63 66
e 63 67
e 63 68
e 63 69
e 63 72
e 63 74
e 63 79
e 63 84
e 63 85
e 64 65
e 64 66
e 64 67
e 64 68
e 64 69
e 64 70
e 64 71
e 64 75
e 64 76
e 65 67
e 65 68
e 65 69
e 65 70
e 65 71
e 65 77
e 65 87
e 66 67
e 66 68
e 66 69
e 66 72
e 66 74
e 66 79
e 66 84
e 66 85
e 67 68
e 67 69
e 67 70
e 67 77
e 68 69
e 68 70
e 68 77
e 69 84
e 69 85
e 70 71
e 70 75
e 70 76
e 70 83
e 71 75
e 71 76
e 71 82
e 71 83
e 71 88
e 72 73
e 72 74
e 72 79
e 72 81
e 72 86
e 73 74
e 73 75
e 73 76
e 73 81
e 73 83
e 73 86
e 74 79
e 74 81
e 74 86
e 75 76
e 75 83
e 76 83
e 77 78
e 77 87
e 78 80
e 78 82
e 78 87
e 79 84
e 79 85
e 80 82
e 80 88
e 81 86
e 82 88
e 84 85
